c ren 2 -> 1
c ren 3 -> 2
c ren 4 -> 3
c ren 5 -> 4
c ren 6 -> 5
c ren 7 -> 6
c ren 8 -> 7
c ren 9 -> 8
c ren 10 -> 9
c ren 11 -> 10
c ren 12 -> 11
c ren 13 -> 12
c ren 14 -> 13
c ren 15 -> 14
c ren 16 -> 15
c ren 17 -> 16
c ren 18 -> 17
c ren 19 -> 18
c ren 20 -> 19
c ren 28 -> 20
c ren 29 -> 21
c ren 30 -> 22
c ren 31 -> 23
c ren 32 -> 24
c ren 33 -> 25
c ren 34 -> 26
c ren 35 -> 27
c ren 36 -> 28
c ren 37 -> 29
c ren 38 -> 30
c ren 39 -> 31
c ren 40 -> 32
c ren 41 -> 33
c ren 42 -> 34
c ren 43 -> 35
c ren 44 -> 36
c ren 45 -> 37
c ren 46 -> 38
c ren 47 -> 39
c ren 48 -> 40
c ren 49 -> 41
c ren 50 -> 42
c ren 51 -> 43
c ren 52 -> 44
c ren 53 -> 45
c ren 54 -> 46
c ren 55 -> 47
c ren 56 -> 48
c ren 99 -> 49
c ren 100 -> 50
c ren 102 -> 51
c ren 103 -> 52
c ren 105 -> 53
c ren 106 -> 54
c ren 108 -> 55
c ren 109 -> 56
c ren 117 -> 57
c ren 118 -> 58
c ren 140 -> 59
c ren 232 -> 60
c ren 329 -> 61
c ren 386 -> 62
c ren 393 -> 63
c ren 394 -> 64
c ren 397 -> 65
c ren 403 -> 66
c ren 404 -> 67
c ren 413 -> 68
c ren 414 -> 69
c ren 423 -> 70
c ren 425 -> 71
c ren 426 -> 72
c ren 431 -> 73
c ren 432 -> 74
c ren 436 -> 75
c ren 440 -> 76
c ren 446 -> 77
c ren 449 -> 78
c ren 464 -> 79
c ren 467 -> 80
c ren 478 -> 81
c ren 486 -> 82
c ren 487 -> 83
c ren 505 -> 84
c ren 528 -> 85
c ren 536 -> 86
c ren 552 -> 87
c ren 564 -> 88
c ren 571 -> 89
c ren 580 -> 90
c ren 581 -> 91
c ren 590 -> 92
c ren 624 -> 93
c ren 646 -> 94
c ren 956 -> 95
c ren 990 -> 96
c ren 996 -> 97
c ren 998 -> 98
c ren 999 -> 99
c ren 1017 -> 100
c ren 1018 -> 101
c ren 1019 -> 102
c ren 1020 -> 103
c ren 1021 -> 104
c ren 1022 -> 105
c ren 1023 -> 106
c ren 1024 -> 107
c ren 1025 -> 108
c ren 1026 -> 109
c ren 1027 -> 110
c ren 1028 -> 111
c ren 1029 -> 112
c ren 1030 -> 113
c ren 1031 -> 114
p cnf 114 578
a 1 2 3 4 5 6 7 8 9 10 11 12 13 14 15 16 17 18 19 20 21 22 23 24 25 26 27 28 29 30 31 32 33 34 35 36 37 38 39 40 41 42 43 0
d 44 27 28 29 0
d 45 27 28 30 31 0
d 46 27 28 32 0
d 47 33 34 0
d 48 27 28 29 30 31 32 33 34 35 36 37 38 39 40 41 42 43 0
e 49 50 51 52 53 54 55 56 57 58 59 60 61 62 63 64 65 66 67 68 69 70 71 72 73 74 75 76 77 78 79 80 81 82 83 84 85 86 87 88 89 90 91 92 93 94 95 96 97 98 99 100 101 102 103 104 105 106 107 108 109 110 111 112 113 114 0
11 25 -70 95 97 0
1 3 4 -5 -7 -8 9 55 56 59 0
-3 4 6 -7 50 0
-4 5 7 -93 0
2 3 4 -5 -6 7 -59 0
-3 -4 7 -93 0
1 4 5 7 -8 9 51 52 53 54 59 0
3 -4 -5 -7 -93 0
3 4 -5 7 -93 0
1 -3 4 7 -8 9 53 54 59 0
4 5 -7 50 -59 0
1 -4 5 -7 -8 9 51 52 59 0
2 3 -4 -5 -6 -7 -59 0
1 -3 -4 -7 -8 9 51 53 54 59 0
1 3 -4 -5 7 -8 9 55 56 59 0
3 -5 -50 0
-2 -3 49 50 54 0
-2 3 -4 -7 52 -94 0
-2 -3 4 -7 50 0
8 -59 0
-2 4 -7 50 56 0
4 7 -56 0
4 -7 50 93 94 0
-2 -4 7 49 56 0
-2 -4 5 7 49 0
7 -50 0
2 -6 -49 0
-4 5 6 7 49 0
-7 -49 0
4 -49 0
-4 -50 0
2 -6 -50 0
-49 -52 0
5 6 49 50 51 0
-6 -51 0
-5 -51 0
2 -52 0
-5 -52 0
-49 -53 0
-6 -53 0
3 -53 0
2 -54 0
3 -54 0
-49 -55 0
-6 -55 0
1 3 -4 -5 6 -7 -8 9 59 0
2 -56 0
3 -4 6 -7 51 -94 0
-49 -94 0
-9 -59 0
-51 -59 0
-52 -59 0
-3 -4 -7 93 0
-53 -59 0
-54 -59 0
-4 5 -7 93 0
-55 -59 0
-2 4 5 -7 50 0
-3 -4 6 7 49 0
4 -57 0
-7 -58 0
-3 -58 0
-1 2 4 -8 9 58 -100 0
-4 6 -7 51 53 54 -94 0
3 4 6 7 51 52 -94 0
-49 -54 0
4 6 7 51 53 -94 0
-3 4 7 93 0
3 -4 -5 7 93 0
-4 -58 0
3 4 -5 -7 93 0
-1 2 7 -8 9 57 58 -100 0
-50 -53 0
13 -16 -17 -19 87 0
-1 -59 0
-56 -59 0
-59 -94 -100 0
-20 -22 -23 70 0
15 -16 -17 -18 -19 20 21 -89 -90 0
-21 -22 -23 -79 0
-21 64 67 68 69 70 0
-21 64 66 68 69 70 0
-20 -22 -23 -72 0
-21 63 66 68 69 70 0
-21 -22 -23 -24 82 0
-21 -22 -23 -71 0
18 -60 0
17 -60 0
16 -60 0
15 18 -26 90 0
-14 19 -75 0
-18 -19 75 0
19 -26 -87 90 0
19 -61 0
18 -61 0
17 -61 0
-17 -18 -19 61 0
-15 -71 0
-10 15 -16 44 -47 -62 95 0
-10 15 -16 22 44 -62 95 0
-21 -22 24 -26 90 0
20 21 23 24 83 0
-20 -22 62 0
-21 -22 62 0
-23 62 0
-20 -22 -83 0
-21 -22 85 0
10 -71 0
-21 -22 -23 70 0
-20 63 66 68 69 70 0
-14 -15 19 20 21 -60 65 -70 0
62 -72 0
-11 -15 16 23 -61 -62 72 0
-12 17 -18 22 78 -85 0
62 -71 0
-11 -15 16 22 44 -62 -97 0
16 -63 0
15 -63 0
12 -63 0
19 -64 0
18 -64 0
-17 -64 0
-16 -17 -19 20 21 -24 65 -77 79 0
22 23 -96 0
-20 -65 0
-21 -65 0
-23 -65 0
-18 20 21 -23 -24 44 -77 78 96 0
22 -23 -66 -67 -70 0
-16 -17 -19 -22 23 -24 65 -77 96 0
-16 -18 22 -23 -24 -77 78 79 0
20 21 -23 -66 -67 -70 0
-18 22 -23 -24 44 -77 78 96 0
-16 17 46 -70 80 95 -96 99 0
-17 -19 -22 23 -24 44 65 -77 96 0
16 -66 0
15 -66 0
13 -66 0
19 -67 0
-18 -67 0
17 -67 0
-16 -17 -18 60 0
-14 -15 19 22 -23 -60 68 0
15 70 0
-10 15 -16 20 21 -61 -62 71 0
-22 -68 0
23 -68 0
-19 63 66 70 0
22 -69 0
-23 -69 0
-19 64 66 70 0
-19 63 67 70 0
-19 -68 0
23 63 67 69 70 0
23 63 66 69 70 0
-20 -22 -23 -79 0
23 64 66 69 70 0
23 64 67 69 70 0
-65 -68 0
-18 -22 23 -24 44 65 -77 78 96 0
-16 -18 20 21 -23 -24 -77 78 79 0
14 64 67 70 0
-21 -22 -23 -72 0
-68 -70 0
-65 -69 0
15 -68 0
-69 -70 0
22 23 70 0
14 63 67 70 0
61 -71 0
-15 -95 0
-11 -15 16 20 21 -61 -62 72 0
10 -95 0
61 -72 0
-11 -15 16 22 -61 -62 72 0
11 45 -70 80 95 -96 99 0
-11 16 22 -99 0
70 -99 0
-24 25 -70 71 72 97 99 -100 0
17 -73 0
-11 -73 0
-16 -17 -18 -19 -80 0
19 -74 0
18 -74 0
-12 -74 0
15 19 80 0
13 -19 75 0
18 -26 -87 90 0
14 -18 75 0
-15 -22 -23 -24 -60 75 -84 91 -92 0
19 -73 0
15 19 -26 90 0
11 -17 -18 -19 73 0
-15 -16 -17 -45 -99 0
16 73 76 0
-16 -17 -75 81 90 92 0
17 74 76 0
75 76 0
-78 -79 0
15 -16 -17 -18 -19 22 -89 -90 0
60 -69 0
17 77 0
10 -16 -17 -18 -19 -77 0
-10 77 0
19 77 0
18 77 0
-19 -78 0
-17 -78 0
-16 -17 -19 -22 23 -24 65 -77 79 0
20 21 -24 -61 65 -77 79 0
17 18 -96 0
-18 20 21 -24 44 65 -77 78 96 0
-16 -18 -22 23 -24 65 -77 78 96 0
-17 -19 22 -23 -24 44 -77 96 0
20 21 23 65 0
-65 -79 0
-17 -19 20 21 -23 -24 44 -77 96 0
16 61 -79 0
-17 -19 20 21 -24 44 65 -77 96 0
-20 63 67 68 69 70 0
20 21 65 -66 -67 -70 0
-16 -17 -19 22 -23 -24 -77 79 0
-16 -18 20 21 -24 65 -77 78 79 0
-16 -18 22 -23 -24 -77 78 96 0
20 21 -23 -24 -61 -77 79 0
-70 72 -76 -79 80 97 98 99 -100 0
22 -23 -24 -61 -77 79 0
-16 -18 20 21 -22 -24 65 -77 78 96 0
16 -44 -96 0
11 -72 0
15 80 95 -96 99 0
-15 76 -98 -100 0
-15 -80 0
-15 -16 20 21 73 74 87 -89 -90 0
-95 -97 0
25 -72 -99 -100 0
60 63 67 70 0
15 71 -79 80 97 98 99 -100 0
-25 -76 -79 80 98 99 -100 0
25 -71 -99 -100 0
-15 -25 76 -99 -100 0
-71 79 -99 -100 0
-80 -98 0
-20 64 67 68 69 70 0
15 -25 -79 80 98 99 -100 0
-25 79 -99 -100 0
-26 -81 0
-10 15 -19 26 81 0
-15 -81 0
10 -81 0
19 -81 0
-16 -74 81 90 92 0
-20 64 66 68 69 70 0
-13 -17 18 -19 20 21 -85 0
22 -23 90 92 0
22 -82 0
-16 -17 -19 20 21 -24 65 -77 96 0
15 16 80 0
-24 -83 0
-23 -83 0
24 60 -85 -86 90 92 0
20 21 23 -62 0
-60 -81 -82 -92 0
-26 82 83 90 0
16 23 -86 90 92 0
-15 16 26 -61 -82 -84 -92 0
-16 -17 60 -75 90 92 0
-73 -75 -76 0
-11 -18 -20 78 84 0
11 -17 -18 -19 -84 0
-11 -17 -19 -20 84 0
-17 18 -19 -21 84 0
-18 19 -20 78 84 0
-11 -18 -21 78 84 0
20 21 -63 -64 65 -70 0
-16 -17 -19 22 -23 -24 -77 96 0
16 -26 61 90 0
-16 -17 -19 20 21 -23 -24 -77 96 0
-22 23 -24 -61 65 -77 79 0
18 19 -96 0
-18 19 -21 78 84 0
18 19 -84 0
17 -18 -21 78 84 0
20 21 -84 0
-22 23 65 -66 -67 -70 0
-78 -84 0
18 19 -79 0
-15 16 -22 -23 -24 -61 -84 91 -92 0
-60 -81 -83 -92 0
16 84 -86 90 92 0
22 -23 -88 0
-24 81 84 90 92 0
-10 -17 -18 -88 89 0
-14 -18 19 20 21 78 -85 0
12 17 85 0
22 23 24 83 0
17 18 -89 0
17 -18 -20 78 84 0
-22 23 -63 -64 65 -70 0
-17 18 -19 -20 84 0
-16 -17 -75 -76 0
-78 85 0
-11 -17 -19 -21 84 0
-74 85 0
-18 -19 61 -88 89 0
-10 -18 -19 -88 89 0
-12 17 -18 20 21 78 -85 0
16 -18 -19 -88 89 0
18 19 85 0
-20 -22 85 0
-21 -22 -83 0
61 86 0
-11 16 20 21 23 24 -61 -86 0
-11 16 22 23 24 -61 -86 0
-21 -22 86 0
-16 86 0
-90 -92 0
-16 -74 -76 0
11 86 0
23 -24 90 92 0
24 81 -85 -86 90 92 0
-24 86 0
-23 86 0
-20 -22 86 0
16 22 -86 90 92 0
22 81 -85 -86 90 92 0
22 60 -85 -86 90 92 0
23 60 -85 -86 90 92 0
24 -82 0
23 81 -85 -86 90 92 0
12 -18 -19 74 0
14 -17 -18 85 0
-14 19 -87 0
14 -16 -17 -18 87 0
-13 18 -87 0
-15 -16 -24 73 74 87 -89 -90 0
16 -87 0
17 -87 0
-17 -18 -19 85 0
-15 -16 -26 -74 90 0
-16 -17 -18 -19 87 0
-15 22 -61 73 87 -89 -90 0
-15 16 20 21 -61 73 -89 -90 0
-15 -26 -73 90 0
16 -26 -73 90 0
-15 -16 22 73 74 87 -89 -90 0
-15 -24 -61 73 87 -89 -90 0
60 -68 0
15 -16 -17 -18 -19 -24 -89 -90 0
23 24 88 0
22 -24 90 92 0
-20 -22 -23 88 0
-61 75 0
-21 -22 -23 88 0
-24 60 84 90 92 0
-17 -19 61 -88 89 0
17 18 85 0
-17 -18 61 -88 89 0
10 -16 -61 -89 0
16 -17 -18 -88 89 0
-10 -17 -19 -88 89 0
16 -17 -19 -88 89 0
-24 -72 -97 -100 0
18 19 -89 0
17 18 -84 0
88 -89 0
-80 -99 0
17 19 -89 0
-72 79 -99 0
-24 -71 -97 -100 0
-20 -22 -23 -96 0
-15 16 22 -61 73 -89 -90 0
-15 -16 17 -22 -23 -24 74 -84 91 -92 0
18 19 -75 0
20 21 -23 -63 -64 -70 0
18 -73 0
15 16 -26 90 0
60 64 66 70 0
-26 89 90 0
17 -26 -74 90 0
15 18 80 0
24 -96 0
26 -90 0
-15 -26 -87 90 0
-81 -91 0
26 -91 0
-90 -91 0
-26 90 91 0
-15 -16 23 24 26 85 -92 0
23 -82 0
-15 -16 75 -82 -84 91 -92 0
15 81 90 92 0
15 60 90 92 0
-15 23 24 -60 85 91 -92 0
15 17 -26 90 0
-16 60 -74 90 92 0
60 84 -85 -86 90 92 0
-23 60 84 90 92 0
-23 81 84 90 92 0
81 84 -85 -86 90 92 0
82 83 90 92 0
-91 92 0
-15 -16 -22 -23 -24 26 75 -84 -92 0
-15 -16 17 74 -82 -84 91 -92 0
-15 -16 -83 85 91 -92 0
-15 86 91 -92 0
16 24 -86 90 92 0
-23 24 90 92 0
-48 92 -100 0
-2 -3 -4 7 49 0
3 -5 -49 0
-4 5 7 49 -59 0
-3 -4 7 49 -59 0
4 5 -7 -93 0
-3 4 -7 -93 0
-3 4 -7 50 -59 0
-4 6 7 49 55 0
1 -2 3 4 -5 7 -8 9 59 0
-2 5 49 50 52 0
5 49 50 93 94 0
-50 -51 0
-3 6 49 50 53 0
4 5 6 -7 50 0
-3 49 50 93 94 0
-49 -56 0
-49 -51 0
1 -2 3 -4 -5 -7 -8 9 59 0
51 52 53 54 55 56 -93 -94 0
-2 -4 -7 52 54 -93 0
-4 7 49 93 94 0
4 7 51 52 53 54 -93 -94 0
-51 94 0
-52 94 0
-53 94 0
-54 94 0
-55 94 0
-56 94 0
-50 -52 0
-2 3 4 7 52 -94 0
3 -57 0
4 6 -7 50 55 0
-50 -55 0
-50 -94 0
-50 -54 0
23 -24 -88 0
-50 -56 0
-1 2 -3 -4 -8 9 57 -100 0
-15 20 21 -61 73 74 87 -89 -90 0
-7 -57 0
2 -6 93 94 0
13 -17 -19 85 0
1 -8 9 59 94 -100 0
4 5 7 93 0
1 3 4 -5 6 7 -8 9 59 0
-21 -22 -23 -96 0
-21 63 67 68 69 70 0
16 -95 0
22 23 -62 0
-13 -17 18 -19 22 -85 0
-14 -18 19 22 78 -85 0
-11 -15 16 23 -99 0
-22 -23 47 -95 0
-22 -23 25 47 -70 97 0
-10 15 -16 23 44 -62 95 0
-10 15 -16 23 -61 -62 71 0
16 -22 -23 47 73 80 -96 99 0
-16 25 -70 95 97 0
-12 -15 -16 63 0
17 -18 -19 64 0
-16 45 -70 80 95 -96 99 0
-65 70 0
20 21 -82 0
22 -23 -63 -64 -70 0
-13 -15 -16 66 0
-17 18 -19 67 0
-14 -15 19 -22 23 -60 65 69 0
14 -68 0
14 -69 0
-20 -22 -23 -24 82 0
-19 -69 0
-19 64 67 70 0
14 63 66 70 0
14 64 66 70 0
15 -69 0
-44 -95 0
16 -71 0
-11 -15 16 44 -47 -62 -97 0
-44 45 -70 80 -96 99 0
-11 16 -47 -99 0
62 -95 0
15 25 95 97 0
25 -44 -70 97 0
11 17 46 -70 80 -96 99 0
-15 -16 -17 -45 -98 0
-78 -96 0
-15 -16 -45 -46 -99 0
11 16 73 80 -96 99 0
-15 -45 -73 -98 0
17 -25 46 80 -96 98 0
60 63 66 70 0
16 77 0
17 19 78 0
-16 -18 -22 23 -24 65 -77 78 79 0
-16 -18 20 21 -23 -24 -77 78 96 0
-16 -17 -19 20 21 -23 -24 -77 79 0
-65 -96 0
-20 -22 -23 -71 0
22 23 -79 0
62 -96 0
24 -79 0
-22 -23 45 47 -70 80 -96 99 0
17 18 -79 0
-20 -22 24 -26 90 0
17 -22 -23 46 47 -70 80 -96 99 0
-11 -15 16 23 44 -62 -97 0
-10 15 -16 22 -61 -62 71 0
15 -25 80 -96 98 0
-15 -45 -73 -99 0
-13 18 -75 0
96 -99 0
17 -44 46 -70 80 -96 99 0
16 -25 73 80 -96 98 0
-15 -16 -45 -46 -98 0
-25 -97 0
-16 -72 0
70 -97 0
77 -79 0
-95 -99 0
25 -98 0
-25 45 80 -96 98 0
15 -72 0
77 -96 0
96 -98 0
79 -98 -100 0
60 64 67 70 0
22 -24 -88 0
20 21 -24 -88 0
20 21 -23 -88 0
48 -92 -100 0
-19 -27 -101 0
19 27 -101 0
-18 -28 -102 0
18 28 -102 0
-17 -29 -103 0
17 29 -103 0
-13 -30 -104 0
13 30 -104 0
-14 -31 -105 0
14 31 -105 0
-12 -32 -106 0
12 32 -106 0
-21 -33 -107 0
21 33 -107 0
-20 -34 -108 0
20 34 -108 0
-15 -35 -109 0
15 35 -109 0
-10 -36 -110 0
10 36 -110 0
-26 -37 -111 0
26 37 -111 0
-16 -38 -112 0
16 38 -112 0
-22 -39 -113 0
22 39 -113 0
-24 -40 -114 0
24 40 -114 0
-11 -23 -41 -42 43 88 100 101 102 103 104 105 106 107 108 109 110 111 112 113 114 0
11 23 41 42 43 88 100 101 102 103 104 105 106 107 108 109 110 111 112 113 114 0
11 -23 -41 42 -43 -88 100 101 102 103 104 105 106 107 108 109 110 111 112 113 114 0
-11 -23 -41 -42 -43 -88 100 101 102 103 104 105 106 107 108 109 110 111 112 113 114 0
-11 23 41 -42 -43 -88 100 101 102 103 104 105 106 107 108 109 110 111 112 113 114 0
-23 82 90 92 0
-11 23 41 -42 43 88 100 101 102 103 104 105 106 107 108 109 110 111 112 113 114 0
11 -23 -41 42 43 88 100 101 102 103 104 105 106 107 108 109 110 111 112 113 114 0
15 17 80 0
11 23 41 42 -43 -88 100 101 102 103 104 105 106 107 108 109 110 111 112 113 114 0
16 61 90 92 0
